objective value:                                   -4
t_n_1                                               1 	(obj:-1)
t_n_16                                              1 	(obj:-1)
t_n_217                                             1 	(obj:-1)
t_n_362                                             1 	(obj:-1)
